50
14521

808 213
93 585
195 779
640 918
404 945
291 139
644 170
704 6
270 879
78 41
367 750
948 103
804 625
269 587
649 54
500 665
168 759
954 278
235 52
408 616
83 757
303 438
382 797
427 981
587 919
92 243
56 247
144 46
335 631
917 544
589 511
789 863
534 837
206 788
908 580
289 293
159 949
124 695
701 843
661 579
935 956
732 510
911 154
379 896
420 441
30 264
501 36
794 465
144 490
259 103
